p cnf 31 35
-1 12 27 0 
-2 28 0 
-3 28 0 
-4 29 0 
-2 -5 25 29 0 
-6 29 0 
-7 24 29 0 
-8 19 21 29 0 
-9 11 13 18 20 28 0 
-10 15 16 29 0 
-11 9 13 18 20 29 0 
-12 1 28 0 
-13 9 11 18 20 27 0 
-14 17 29 0 
-15 10 16 28 0 
-16 10 15 29 0 
-17 14 29 0 
-18 9 11 13 20 29 0 
-17 14 29 0 
-19 8 21 27 0 
-16 10 15 28 0 
-20 9 11 13 18 27 0 
-21 8 19 29 0 
-21 8 19 28 0 
-12 1 29 0 
-1 12 -22 27 0 
-23 -21 8 19 30 0 
-2 30 0 
-18 9 11 13 20 31 0 
-17 14 31 0 
-1 12 -24 7 27 0 
-25 5 27 0 
-26 28 0 
-17 14 -21 8 19 28 0 
-3 -21 8 19 31 0 
